NAME : Giant_Problem.txt
COMMENT : 
TYPE : TSP
DIMENSION : 20
EDGE_WEIGHT_TYPE : EUC_2D
NODE_COORD_SECTION
1	42	41	
2	31	32
3	5	25
4	12	42
5	36	16
6	52	41
7	27	23
8	17	33
9	13	13
10	57	58
11	62	42
12	42	57
13	16	57
14	8	52
15	7	38
16	27	68
17	30	48
18	43	67
19	58	48
20	58	27
EOF
